Maximize
profit: -10 W_0_0_0-9 W_0_0_1-8 W_0_0_2-10 W_1_0_0-9 W_1_0_1-8 W_1_0_2-10 W_0_1_0-9 W_0_1_1-8 W_0_1_2-10 W_1_1_0-9 W_1_1_1-8 W_1_1_2-10 W_0_2_0-9 W_0_2_1-8 W_0_2_2-10 W_1_2_0-9 W_1_2_1-8 W_1_2_2-10 W_0_3_0-9 W_0_3_1-8 W_0_3_2-10 W_1_3_0-9 W_1_3_1-8 W_1_3_2-10 W_0_4_0-9 W_0_4_1-8 W_0_4_2-10 W_1_4_0-9 W_1_4_1-8 W_1_4_2-10 W_0_5_0-9 W_0_5_1-8 W_0_5_2-10 W_1_5_0-9 W_1_5_1-8 W_1_5_2-10 W_0_6_0-9 W_0_6_1-8 W_0_6_2-10 W_1_6_0-9 W_1_6_1-8 W_1_6_2-10 W_0_7_0-9 W_0_7_1-8 W_0_7_2-10 W_1_7_0-9 W_1_7_1-8 W_1_7_2-10 W_0_8_0-9 W_0_8_1-8 W_0_8_2-10 W_1_8_0-9 W_1_8_1-8 W_1_8_2-10 W_0_9_0-9 W_0_9_1-8 W_0_9_2-10 W_1_9_0-9 W_1_9_1-8 W_1_9_2-10 W_0_10_0-9 W_0_10_1-8 W_0_10_2-10 W_1_10_0-9 W_1_10_1-8 W_1_10_2-10 W_0_11_0-9 W_0_11_1-8 W_0_11_2-10 W_1_11_0-9 W_1_11_1-8 W_1_11_2-11 Y_0_0 -11 Y_1_0 -11 Y_0_1 -11 Y_1_1 -11 Y_0_2 -11 Y_1_2 -11 Y_0_3 -11 Y_1_3 -11 Y_0_4 -11 Y_1_4 -11 Y_0_5 -11 Y_1_5 -11 Y_0_6 -11 Y_1_6 -11 Y_0_7 -11 Y_1_7 -11 Y_0_8 -11 Y_1_8 -11 Y_0_9 -11 Y_1_9 -11 Y_0_10 -11 Y_1_10 -11 Y_0_11 -11 Y_1_11 -11 Y_0_12 -11 Y_1_12 +15 W_0_0_0+15 W_0_0_1+15 W_0_0_2+15 W_1_0_0+15 W_1_0_1+15 W_1_0_2+15 W_0_1_0+15 W_0_1_1+15 W_0_1_2+15 W_1_1_0+15 W_1_1_1+15 W_1_1_2+15 W_0_2_0+15 W_0_2_1+15 W_0_2_2+15 W_1_2_0+15 W_1_2_1+15 W_1_2_2+15 W_0_3_0+15 W_0_3_1+15 W_0_3_2+15 W_1_3_0+15 W_1_3_1+15 W_1_3_2+15 W_0_4_0+15 W_0_4_1+15 W_0_4_2+15 W_1_4_0+15 W_1_4_1+15 W_1_4_2+15 W_0_5_0+15 W_0_5_1+15 W_0_5_2+15 W_1_5_0+15 W_1_5_1+15 W_1_5_2+15 W_0_6_0+15 W_0_6_1+15 W_0_6_2+15 W_1_6_0+15 W_1_6_1+15 W_1_6_2+15 W_0_7_0+15 W_0_7_1+15 W_0_7_2+15 W_1_7_0+15 W_1_7_1+15 W_1_7_2+15 W_0_8_0+15 W_0_8_1+15 W_0_8_2+15 W_1_8_0+15 W_1_8_1+15 W_1_8_2+15 W_0_9_0+15 W_0_9_1+15 W_0_9_2+15 W_1_9_0+15 W_1_9_1+15 W_1_9_2+15 W_0_10_0+15 W_0_10_1+15 W_0_10_2+15 W_1_10_0+15 W_1_10_1+15 W_1_10_2+15 W_0_11_0+15 W_0_11_1+15 W_0_11_2+15 W_1_11_0+15 W_1_11_1+15 W_1_11_2-18000000 Z_0 -21600000 Z_1 -25200000 Z_2 -10000000 Z_0 -12000000 Z_1 -13500000 Z_2  +68100000 cst

Subject to
stock_0_0: Y_0_1 - Y_0_0 - X_0_0 =  -50000
stock_1_0: Y_1_1 - Y_1_0 - X_1_0 =  -50000
stock_0_1: Y_0_2 - Y_0_1 - X_0_1 =  -60000
stock_1_1: Y_1_2 - Y_1_1 - X_1_1 =  -50000
stock_0_2: Y_0_3 - Y_0_2 - X_0_2 =  -60000
stock_1_2: Y_1_3 - Y_1_2 - X_1_2 =  -70000
stock_0_3: Y_0_4 - Y_0_3 - X_0_3 =  -40000
stock_1_3: Y_1_4 - Y_1_3 - X_1_3 =  -50000
stock_0_4: Y_0_5 - Y_0_4 - X_0_4 =  -40000
stock_1_4: Y_1_5 - Y_1_4 - X_1_4 =  -40000
stock_0_5: Y_0_6 - Y_0_5 - X_0_5 =  -50000
stock_1_5: Y_1_6 - Y_1_5 - X_1_5 =  -50000
stock_0_6: Y_0_7 - Y_0_6 - X_0_6 =  -60000
stock_1_6: Y_1_7 - Y_1_6 - X_1_6 =  -50000
stock_0_7: Y_0_8 - Y_0_7 - X_0_7 =  -50000
stock_1_7: Y_1_8 - Y_1_7 - X_1_7 =  -60000
stock_0_8: Y_0_9 - Y_0_8 - X_0_8 =  -50000
stock_1_8: Y_1_9 - Y_1_8 - X_1_8 =  -50000
stock_0_9: Y_0_10 - Y_0_9 - X_0_9 =  -60000
stock_1_9: Y_1_10 - Y_1_9 - X_1_9 =  -35000
stock_0_10: Y_0_11 - Y_0_10 - X_0_10 =  -60000
stock_1_10: Y_1_11 - Y_1_10 - X_1_10 =  -45000
stock_0_11: Y_0_12 - Y_0_11 - X_0_11 =  -50000
stock_1_11: Y_1_12 - Y_1_11 - X_1_11 =  -60000

Capa_0: X_0_0 + X_1_0 - 100000 Z_0 - 120000 Z_1 - 140000 Z_2 <= 0
Capa_1: X_0_1 + X_1_1 - 100000 Z_0 - 120000 Z_1 - 140000 Z_2 <= 0
Capa_2: X_0_2 + X_1_2 - 100000 Z_0 - 120000 Z_1 - 140000 Z_2 <= 0
Capa_3: X_0_3 + X_1_3 - 100000 Z_0 - 120000 Z_1 - 140000 Z_2 <= 0
Capa_4: X_0_4 + X_1_4 - 100000 Z_0 - 120000 Z_1 - 140000 Z_2 <= 0
Capa_5: X_0_5 + X_1_5 - 100000 Z_0 - 120000 Z_1 - 140000 Z_2 <= 0
Capa_6: X_0_6 + X_1_6 - 100000 Z_0 - 120000 Z_1 - 140000 Z_2 <= 0
Capa_7: X_0_7 + X_1_7 - 100000 Z_0 - 120000 Z_1 - 140000 Z_2 <= 0
Capa_8: X_0_8 + X_1_8 - 100000 Z_0 - 120000 Z_1 - 140000 Z_2 <= 0
Capa_9: X_0_9 + X_1_9 - 100000 Z_0 - 120000 Z_1 - 140000 Z_2 <= 0
Capa_10: X_0_10 + X_1_10 - 100000 Z_0 - 120000 Z_1 - 140000 Z_2 <= 0
Capa_11: X_0_11 + X_1_11 - 100000 Z_0 - 120000 Z_1 - 140000 Z_2 <= 0
Somme_Z: Z_0 + Z_1 + Z_2 = 1
W_0_0_0_a: W_0_0_0 - X_0_0 <= 0
W_0_0_0_b: W_0_0_0 - 100000 Z_0 <= 0
W_0_0_0_c: W_0_0_0 >= 0
W_0_0_1_a: W_0_0_1 - X_0_0 <= 0
W_0_0_1_b: W_0_0_1 - 120000 Z_1 <= 0
W_0_0_1_c: W_0_0_1 >= 0
W_0_0_2_a: W_0_0_2 - X_0_0 <= 0
W_0_0_2_b: W_0_0_2 - 140000 Z_2 <= 0
W_0_0_2_c: W_0_0_2 >= 0
W_1_0_0_a: W_1_0_0 - X_1_0 <= 0
W_1_0_0_b: W_1_0_0 - 100000 Z_0 <= 0
W_1_0_0_c: W_1_0_0 >= 0
W_1_0_1_a: W_1_0_1 - X_1_0 <= 0
W_1_0_1_b: W_1_0_1 - 120000 Z_1 <= 0
W_1_0_1_c: W_1_0_1 >= 0
W_1_0_2_a: W_1_0_2 - X_1_0 <= 0
W_1_0_2_b: W_1_0_2 - 140000 Z_2 <= 0
W_1_0_2_c: W_1_0_2 >= 0
W_0_1_0_a: W_0_1_0 - X_0_1 <= 0
W_0_1_0_b: W_0_1_0 - 100000 Z_0 <= 0
W_0_1_0_c: W_0_1_0 >= 0
W_0_1_1_a: W_0_1_1 - X_0_1 <= 0
W_0_1_1_b: W_0_1_1 - 120000 Z_1 <= 0
W_0_1_1_c: W_0_1_1 >= 0
W_0_1_2_a: W_0_1_2 - X_0_1 <= 0
W_0_1_2_b: W_0_1_2 - 140000 Z_2 <= 0
W_0_1_2_c: W_0_1_2 >= 0
W_1_1_0_a: W_1_1_0 - X_1_1 <= 0
W_1_1_0_b: W_1_1_0 - 100000 Z_0 <= 0
W_1_1_0_c: W_1_1_0 >= 0
W_1_1_1_a: W_1_1_1 - X_1_1 <= 0
W_1_1_1_b: W_1_1_1 - 120000 Z_1 <= 0
W_1_1_1_c: W_1_1_1 >= 0
W_1_1_2_a: W_1_1_2 - X_1_1 <= 0
W_1_1_2_b: W_1_1_2 - 140000 Z_2 <= 0
W_1_1_2_c: W_1_1_2 >= 0
W_0_2_0_a: W_0_2_0 - X_0_2 <= 0
W_0_2_0_b: W_0_2_0 - 100000 Z_0 <= 0
W_0_2_0_c: W_0_2_0 >= 0
W_0_2_1_a: W_0_2_1 - X_0_2 <= 0
W_0_2_1_b: W_0_2_1 - 120000 Z_1 <= 0
W_0_2_1_c: W_0_2_1 >= 0
W_0_2_2_a: W_0_2_2 - X_0_2 <= 0
W_0_2_2_b: W_0_2_2 - 140000 Z_2 <= 0
W_0_2_2_c: W_0_2_2 >= 0
W_1_2_0_a: W_1_2_0 - X_1_2 <= 0
W_1_2_0_b: W_1_2_0 - 100000 Z_0 <= 0
W_1_2_0_c: W_1_2_0 >= 0
W_1_2_1_a: W_1_2_1 - X_1_2 <= 0
W_1_2_1_b: W_1_2_1 - 120000 Z_1 <= 0
W_1_2_1_c: W_1_2_1 >= 0
W_1_2_2_a: W_1_2_2 - X_1_2 <= 0
W_1_2_2_b: W_1_2_2 - 140000 Z_2 <= 0
W_1_2_2_c: W_1_2_2 >= 0
W_0_3_0_a: W_0_3_0 - X_0_3 <= 0
W_0_3_0_b: W_0_3_0 - 100000 Z_0 <= 0
W_0_3_0_c: W_0_3_0 >= 0
W_0_3_1_a: W_0_3_1 - X_0_3 <= 0
W_0_3_1_b: W_0_3_1 - 120000 Z_1 <= 0
W_0_3_1_c: W_0_3_1 >= 0
W_0_3_2_a: W_0_3_2 - X_0_3 <= 0
W_0_3_2_b: W_0_3_2 - 140000 Z_2 <= 0
W_0_3_2_c: W_0_3_2 >= 0
W_1_3_0_a: W_1_3_0 - X_1_3 <= 0
W_1_3_0_b: W_1_3_0 - 100000 Z_0 <= 0
W_1_3_0_c: W_1_3_0 >= 0
W_1_3_1_a: W_1_3_1 - X_1_3 <= 0
W_1_3_1_b: W_1_3_1 - 120000 Z_1 <= 0
W_1_3_1_c: W_1_3_1 >= 0
W_1_3_2_a: W_1_3_2 - X_1_3 <= 0
W_1_3_2_b: W_1_3_2 - 140000 Z_2 <= 0
W_1_3_2_c: W_1_3_2 >= 0
W_0_4_0_a: W_0_4_0 - X_0_4 <= 0
W_0_4_0_b: W_0_4_0 - 100000 Z_0 <= 0
W_0_4_0_c: W_0_4_0 >= 0
W_0_4_1_a: W_0_4_1 - X_0_4 <= 0
W_0_4_1_b: W_0_4_1 - 120000 Z_1 <= 0
W_0_4_1_c: W_0_4_1 >= 0
W_0_4_2_a: W_0_4_2 - X_0_4 <= 0
W_0_4_2_b: W_0_4_2 - 140000 Z_2 <= 0
W_0_4_2_c: W_0_4_2 >= 0
W_1_4_0_a: W_1_4_0 - X_1_4 <= 0
W_1_4_0_b: W_1_4_0 - 100000 Z_0 <= 0
W_1_4_0_c: W_1_4_0 >= 0
W_1_4_1_a: W_1_4_1 - X_1_4 <= 0
W_1_4_1_b: W_1_4_1 - 120000 Z_1 <= 0
W_1_4_1_c: W_1_4_1 >= 0
W_1_4_2_a: W_1_4_2 - X_1_4 <= 0
W_1_4_2_b: W_1_4_2 - 140000 Z_2 <= 0
W_1_4_2_c: W_1_4_2 >= 0
W_0_5_0_a: W_0_5_0 - X_0_5 <= 0
W_0_5_0_b: W_0_5_0 - 100000 Z_0 <= 0
W_0_5_0_c: W_0_5_0 >= 0
W_0_5_1_a: W_0_5_1 - X_0_5 <= 0
W_0_5_1_b: W_0_5_1 - 120000 Z_1 <= 0
W_0_5_1_c: W_0_5_1 >= 0
W_0_5_2_a: W_0_5_2 - X_0_5 <= 0
W_0_5_2_b: W_0_5_2 - 140000 Z_2 <= 0
W_0_5_2_c: W_0_5_2 >= 0
W_1_5_0_a: W_1_5_0 - X_1_5 <= 0
W_1_5_0_b: W_1_5_0 - 100000 Z_0 <= 0
W_1_5_0_c: W_1_5_0 >= 0
W_1_5_1_a: W_1_5_1 - X_1_5 <= 0
W_1_5_1_b: W_1_5_1 - 120000 Z_1 <= 0
W_1_5_1_c: W_1_5_1 >= 0
W_1_5_2_a: W_1_5_2 - X_1_5 <= 0
W_1_5_2_b: W_1_5_2 - 140000 Z_2 <= 0
W_1_5_2_c: W_1_5_2 >= 0
W_0_6_0_a: W_0_6_0 - X_0_6 <= 0
W_0_6_0_b: W_0_6_0 - 100000 Z_0 <= 0
W_0_6_0_c: W_0_6_0 >= 0
W_0_6_1_a: W_0_6_1 - X_0_6 <= 0
W_0_6_1_b: W_0_6_1 - 120000 Z_1 <= 0
W_0_6_1_c: W_0_6_1 >= 0
W_0_6_2_a: W_0_6_2 - X_0_6 <= 0
W_0_6_2_b: W_0_6_2 - 140000 Z_2 <= 0
W_0_6_2_c: W_0_6_2 >= 0
W_1_6_0_a: W_1_6_0 - X_1_6 <= 0
W_1_6_0_b: W_1_6_0 - 100000 Z_0 <= 0
W_1_6_0_c: W_1_6_0 >= 0
W_1_6_1_a: W_1_6_1 - X_1_6 <= 0
W_1_6_1_b: W_1_6_1 - 120000 Z_1 <= 0
W_1_6_1_c: W_1_6_1 >= 0
W_1_6_2_a: W_1_6_2 - X_1_6 <= 0
W_1_6_2_b: W_1_6_2 - 140000 Z_2 <= 0
W_1_6_2_c: W_1_6_2 >= 0
W_0_7_0_a: W_0_7_0 - X_0_7 <= 0
W_0_7_0_b: W_0_7_0 - 100000 Z_0 <= 0
W_0_7_0_c: W_0_7_0 >= 0
W_0_7_1_a: W_0_7_1 - X_0_7 <= 0
W_0_7_1_b: W_0_7_1 - 120000 Z_1 <= 0
W_0_7_1_c: W_0_7_1 >= 0
W_0_7_2_a: W_0_7_2 - X_0_7 <= 0
W_0_7_2_b: W_0_7_2 - 140000 Z_2 <= 0
W_0_7_2_c: W_0_7_2 >= 0
W_1_7_0_a: W_1_7_0 - X_1_7 <= 0
W_1_7_0_b: W_1_7_0 - 100000 Z_0 <= 0
W_1_7_0_c: W_1_7_0 >= 0
W_1_7_1_a: W_1_7_1 - X_1_7 <= 0
W_1_7_1_b: W_1_7_1 - 120000 Z_1 <= 0
W_1_7_1_c: W_1_7_1 >= 0
W_1_7_2_a: W_1_7_2 - X_1_7 <= 0
W_1_7_2_b: W_1_7_2 - 140000 Z_2 <= 0
W_1_7_2_c: W_1_7_2 >= 0
W_0_8_0_a: W_0_8_0 - X_0_8 <= 0
W_0_8_0_b: W_0_8_0 - 100000 Z_0 <= 0
W_0_8_0_c: W_0_8_0 >= 0
W_0_8_1_a: W_0_8_1 - X_0_8 <= 0
W_0_8_1_b: W_0_8_1 - 120000 Z_1 <= 0
W_0_8_1_c: W_0_8_1 >= 0
W_0_8_2_a: W_0_8_2 - X_0_8 <= 0
W_0_8_2_b: W_0_8_2 - 140000 Z_2 <= 0
W_0_8_2_c: W_0_8_2 >= 0
W_1_8_0_a: W_1_8_0 - X_1_8 <= 0
W_1_8_0_b: W_1_8_0 - 100000 Z_0 <= 0
W_1_8_0_c: W_1_8_0 >= 0
W_1_8_1_a: W_1_8_1 - X_1_8 <= 0
W_1_8_1_b: W_1_8_1 - 120000 Z_1 <= 0
W_1_8_1_c: W_1_8_1 >= 0
W_1_8_2_a: W_1_8_2 - X_1_8 <= 0
W_1_8_2_b: W_1_8_2 - 140000 Z_2 <= 0
W_1_8_2_c: W_1_8_2 >= 0
W_0_9_0_a: W_0_9_0 - X_0_9 <= 0
W_0_9_0_b: W_0_9_0 - 100000 Z_0 <= 0
W_0_9_0_c: W_0_9_0 >= 0
W_0_9_1_a: W_0_9_1 - X_0_9 <= 0
W_0_9_1_b: W_0_9_1 - 120000 Z_1 <= 0
W_0_9_1_c: W_0_9_1 >= 0
W_0_9_2_a: W_0_9_2 - X_0_9 <= 0
W_0_9_2_b: W_0_9_2 - 140000 Z_2 <= 0
W_0_9_2_c: W_0_9_2 >= 0
W_1_9_0_a: W_1_9_0 - X_1_9 <= 0
W_1_9_0_b: W_1_9_0 - 100000 Z_0 <= 0
W_1_9_0_c: W_1_9_0 >= 0
W_1_9_1_a: W_1_9_1 - X_1_9 <= 0
W_1_9_1_b: W_1_9_1 - 120000 Z_1 <= 0
W_1_9_1_c: W_1_9_1 >= 0
W_1_9_2_a: W_1_9_2 - X_1_9 <= 0
W_1_9_2_b: W_1_9_2 - 140000 Z_2 <= 0
W_1_9_2_c: W_1_9_2 >= 0
W_0_10_0_a: W_0_10_0 - X_0_10 <= 0
W_0_10_0_b: W_0_10_0 - 100000 Z_0 <= 0
W_0_10_0_c: W_0_10_0 >= 0
W_0_10_1_a: W_0_10_1 - X_0_10 <= 0
W_0_10_1_b: W_0_10_1 - 120000 Z_1 <= 0
W_0_10_1_c: W_0_10_1 >= 0
W_0_10_2_a: W_0_10_2 - X_0_10 <= 0
W_0_10_2_b: W_0_10_2 - 140000 Z_2 <= 0
W_0_10_2_c: W_0_10_2 >= 0
W_1_10_0_a: W_1_10_0 - X_1_10 <= 0
W_1_10_0_b: W_1_10_0 - 100000 Z_0 <= 0
W_1_10_0_c: W_1_10_0 >= 0
W_1_10_1_a: W_1_10_1 - X_1_10 <= 0
W_1_10_1_b: W_1_10_1 - 120000 Z_1 <= 0
W_1_10_1_c: W_1_10_1 >= 0
W_1_10_2_a: W_1_10_2 - X_1_10 <= 0
W_1_10_2_b: W_1_10_2 - 140000 Z_2 <= 0
W_1_10_2_c: W_1_10_2 >= 0
W_0_11_0_a: W_0_11_0 - X_0_11 <= 0
W_0_11_0_b: W_0_11_0 - 100000 Z_0 <= 0
W_0_11_0_c: W_0_11_0 >= 0
W_0_11_1_a: W_0_11_1 - X_0_11 <= 0
W_0_11_1_b: W_0_11_1 - 120000 Z_1 <= 0
W_0_11_1_c: W_0_11_1 >= 0
W_0_11_2_a: W_0_11_2 - X_0_11 <= 0
W_0_11_2_b: W_0_11_2 - 140000 Z_2 <= 0
W_0_11_2_c: W_0_11_2 >= 0
W_1_11_0_a: W_1_11_0 - X_1_11 <= 0
W_1_11_0_b: W_1_11_0 - 100000 Z_0 <= 0
W_1_11_0_c: W_1_11_0 >= 0
W_1_11_1_a: W_1_11_1 - X_1_11 <= 0
W_1_11_1_b: W_1_11_1 - 120000 Z_1 <= 0
W_1_11_1_c: W_1_11_1 >= 0
W_1_11_2_a: W_1_11_2 - X_1_11 <= 0
W_1_11_2_b: W_1_11_2 - 140000 Z_2 <= 0
W_1_11_2_c: W_1_11_2 >= 0

Bounds
cst = 1
Y_0_0 = 0
Y_1_0 = 0

Binaries
Z_0 Z_1 Z_2 
End